objective value:                                 3312
delta[0,0]*                                         8 	(obj:414)
mu[0,0,40]*                         0.366157813005818 	(obj:0)
mu[0,0,46]*                        0.0182155112349342 	(obj:0)
mu[0,0,50]*                          1.60893237947981 	(obj:0)
mu[0,0,59]*                         0.331611501900169 	(obj:0)
mu[0,0,61]*                         0.786127167630058 	(obj:0)
mu[0,0,65]*                          4.79268569409029 	(obj:0)
